SYSTEM = NaCl
LREAL = Auto
Algo = Fast
NSW = 200

ENCUT = 341

!!LWAVE = .FALSE.
!!LCHARG = .FALSE.


ISPIN =  1

ISMEAR = 0
SIGMA = 0.1

IBRION = 2
!!POTIM = 0.3
ISIF = 3

EDIFF = 1e-5
EDIFFG = -0.01
