SYSTEM = Si8
!PREC = High
Algo = Fast
LREAL = Auto
NSW = 60

LWAVE = .FALSE.
LCHARG = .FALSE.

ISMEAR = 0
SIGMA = 0.2

IBRION = 2
POTIM = 0.2
ISIF = 2

EDIFF = 1e-5
EDIFFG = -0.01

