SYSTEM = Si8
PREC = High
Algo = Fast
LREAL = Auto
NSW = 0

!!!LWAVE = .FALSE.
!!!!LCHARG = .FALSE.

ISMEAR = -5
SIGMA = 0.15

IBRION = 1
ISIF = 2

EDIFF = 1e-5
EDIFFG = -0.01
