SYSTEM = Si8
NPAR = 2
PREC = High
Algo = Fast
!!!!LREAL = Auto
NSW = 10

LWAVE = .FALSE.
LCHARG = .FALSE.

ISMEAR = 0
SIGMA = 0.15

IBRION = 2
ISIF = 3
POTIM = 0.2

EDIFF = 1e-5
EDIFFG = -0.01



