SYSTEM = Si8
Algo = Fast
!!!!LREAL = Auto
NSW = 10

ENCUT = 319

LWAVE = .FALSE.
LCHARG = .FALSE.

ISMEAR = 0
SIGMA = 0.15

IBRION = 2
ISIF = 3

EDIFF = 1e-5
EDIFFG = -0.01



