SYSTEM = Si8
!PREC = High
Algo = Fast
LREAL = Auto
NSW = 200

LWAVE = .FALSE.
LCHARG = .FALSE.

ISMEAR = 1
SIGMA = 0.2

IBRION = 2
POTIM = 0.1
ISIF = 2

EDIFF = 1e-5
EDIFFG = -0.01

