SYSTEM = Y2Co17

!!!NPAR = 2
KPAR = 4

Algo = Fast
!!!!!LREAL = Auto

ENCUT = 348

LWAVE = .FALSE.
LCHARG = .FALSE.

ISPIN =  2
LORBIT = 11
MAGMOM =  2*0 17*5

ISMEAR = 1
SIGMA = 0.15

NSW = 100
IBRION = 1
ISIF = 3

EDIFF = 1e-5
EDIFFG = -0.01



