SYSTEM = Y2Co17

!!!!NPAR = 2
KPAR = 4

Algo = Fast
!!!!LREAL = Auto

LWAVE = .FALSE.
LCHARG = .FALSE.

ISPIN =  1
!!!!!MAGMOM =  2*0 17*5

ISMEAR = 1
SIGMA = 0.2

NSW = 100
IBRION = 2
ISIF = 2
POTIM = 0.3

EDIFF = 1e-5
EDIFFG = -0.01



