SYSTEM = Si
PREC = High
Algo = Fast
LREAL = Auto
NSW = 0

LWAVE = .FALSE.
LCHARG = .FALSE.

ISMEAR = 0
SIGMA = 0.1

IBRION = 2
ISIF = 2

EDIFF = 1e-5
EDIFFG = -0.01